%chk=carbene_irc2.chk
%nprocshared=24
#p irc=(calcfc,lqa,stepsize=15,maxpoint=40) b3lyp/6-31g(d) scrf=(smd,solvent=benzene) em=gd3bj

Title Card Required

0 1
 C                  0.00001800   -0.79513900    0.25873800
 C                  0.67962200    1.29865200   -0.09327100
 C                 -0.67958900    1.29865300   -0.09335100
 H                  1.38913500    2.10093700   -0.21956200
 H                 -1.38909800    2.10092200   -0.21977300
 N                 -1.08882000   -0.00649800    0.14888800
 N                  1.08884700   -0.00646400    0.14906900
 C                 -2.42625600   -0.54971800   -0.02083100
 H                 -2.39357200   -1.26352600   -0.85469500
 H                 -2.75089200   -1.06205400    0.88823900
 H                 -3.11662300    0.26462700   -0.24432600
 C                  2.42621700   -0.54976600   -0.02092600
 H                  2.39353800   -1.26306700   -0.85522000
 H                  3.11669500    0.26463700   -0.24386200
 H                  2.75072400   -1.06268700    0.88785900
 H                 -0.00021900   -2.32883500   -1.55616400
 H                  0.00005000   -1.87631700    0.14964600




