%chk=carbene.chk
%nproc=24
#p b3lyp/6-31g* em=gd3bj opt=(ts,calcfc,noeigen) freq scrf=(smd,solvent=benzene)

Title Card Required

0 1
 C                 -0.29428290   -0.26366922   -1.51785509
 C                  1.55888923    1.06088416   -1.74840552
 C                  0.50394700    1.88157270   -1.56925871
 H                  2.53135109    1.37809253   -2.06240678
 H                  0.52262726    2.94048221   -1.72177658
 N                 -0.67999458    1.11541618   -1.16311626
 N                  1.17913030   -0.33121297   -1.47961166
 C                 -0.93848519    1.23080360    0.27937060
 H                 -1.15875913    2.24941307    0.52188687
 H                 -1.77156998    0.61323284    0.54295379
 H                 -0.07327949    0.91375437    0.82324456
 C                  1.74425630   -1.26288007   -2.46628741
 H                  1.42585210   -0.97941480   -3.44769772
 H                  2.81257944   -1.23186063   -2.41506756
 H                  1.40568758   -2.25551701   -2.25428950
 H                 -0.99888065   -0.98297425   -2.36859268
 H                 -1.04254272   -1.29611062   -1.19379278





