%chk=irc32r3.chk
%nprocshared=24
#p opt=calcfc freq b3lyp/6-311+g(d)

Title Card Required

0 1
 C                 -1.35821900    0.33761900    0.21445900
 H                 -2.02465500    0.50391300    1.05507600
 O                 -1.22035300   -0.98306100   -0.02600900
 C                 -0.78712300    1.35233800   -0.44500700
 H                 -0.18082300    1.20742100   -1.33057300
 H                 -0.99852300    2.37044500   -0.14536400
 C                  1.69077300    0.27306900    0.43590500
 H                  2.06028400    1.19025600   -0.06060700
 H                  1.47697300    0.36068200    1.51629800
 O                  1.56863200   -0.77142000   -0.15593700
 H                 -0.44824100   -1.16125300   -0.59236300

