%chk=R2.chk
%nprocshared=24
#p opt freq b3lyp/6-311+g(d)

Title Card Required

0 1
 C                 -4.07942537    1.39641741   -0.04251925
 H                 -3.57147216    0.47080333    0.13103796
 H                 -5.13816166    1.40487325   -0.19713482
 C                 -3.38183563    2.55803701   -0.06650846
 H                 -3.88978928    3.48365141   -0.24006271
 O                 -1.96688861    2.54673592    0.14012459
 H                 -1.71035133    1.71875523    0.55272197
 C                 -2.65225377   -0.32806031    1.43362711
 H                 -2.81543039   -1.33593072    1.11351676
 H                 -3.47922065    0.26939658    1.75622757
 O                 -1.49110912    0.15702835    1.43200076

