%chk=Pt_tsb.chk
%nprocshared=24
#p opt=(ts,calcall,noeigen) pbe1pbe/def2tzvp em=gd3bj geom=allcheck scrf=(smd,solvent=benzene) 





