%chk=Pt_irc0021.chk
%nprocshared=24
%mem=10gb
#p pbe1pbe/def2tzvp em=gd3bj scrf=(smd,solvent=benzene) out=wfn

irc

0 1
Pt    0.00001700 -0.44214900  0.00946900
P     2.10055100  0.41941700 -0.01668100
P    -2.10062900  0.41970000 -0.00233100
C     2.60965000  1.39882300  1.43447800
H     2.48012500  0.79793900  2.33699400
H     3.65459600  1.71459800  1.36067800
H     1.96889800  2.27845000  1.52045400
C     3.46137600 -0.80103800 -0.09612300
H     3.34291500 -1.40658600 -0.99738000
H     4.44831000 -0.32805800 -0.10664800
H     3.38996200 -1.46776300  0.76599900
C     2.55517000  1.51722800 -1.39991400
H     1.91257900  2.39968500 -1.38703900
H     3.60285100  1.82744400 -1.34253800
H     2.38835300  0.99304700 -2.34331200
C    -2.55468400  1.56954600  1.33807500
H    -1.91229500  2.45099300  1.29136800
H    -3.60242900  1.87714000  1.26907000
H    -2.38768400  1.08167300  2.30070400
C    -3.46157200 -0.79666800  0.12407100
H    -4.44852100 -0.32369900  0.11454800
H    -3.38918400 -1.49728900 -0.71064900
H    -3.34408800 -1.36567300  1.04896100
C    -2.60990000  1.34251000 -1.48995600
H    -2.48291400  0.70621500 -2.36825800
H    -3.65407000  1.66319600 -1.42729400
H    -1.96726700  2.21654900 -1.61139500
H    -0.46401200 -2.12217400  0.05509300
H     0.46249400 -2.12097100  0.04719000

Pt_irc0021.wfn

