%chk=Pt_irc0072.chk
%nprocshared=24
%mem=10gb
#p pbe1pbe/def2tzvp em=gd3bj scrf=(smd,solvent=benzene) out=wfn

irc

0 1
Pt   -0.00293800 -0.27672700  0.00558400
P     2.18229100  0.22148000 -0.00907000
P    -2.18299700  0.22248500  0.00054000
C     2.68204300  1.22064300  1.43240800
H     2.57357000  0.62671400  2.34199100
H     3.71813000  1.56084300  1.34450200
H     2.02192900  2.08593900  1.51374200
C     3.51745200 -1.01881700 -0.08304300
H     3.40042600 -1.62002600 -0.98726900
H     4.50691300 -0.55247800 -0.08590300
H     3.43694200 -1.68704000  0.77707500
C     2.62328400  1.32299400 -1.39441300
H     1.96403400  2.19266500 -1.38354600
H     3.66369300  1.65462700 -1.32704200
H     2.47288300  0.79704300 -2.33918400
C    -2.61998600  1.37918700  1.34138300
H    -1.95602500  2.24422400  1.29796200
H    -3.65851900  1.71334700  1.25903900
H    -2.47421600  0.88951300  2.30616100
C    -3.52582300 -1.00618900  0.12240100
H    -4.51202700 -0.53309200  0.10706800
H    -3.45091600 -1.70767300 -0.71128900
H    -3.41359600 -1.57234600  1.04953600
C    -2.67761800  1.16638500 -1.47939800
H    -2.57145300  0.53675500 -2.36492800
H    -3.71222500  1.51433000 -1.40543400
H    -2.01359700  2.02485800 -1.59415900
H     0.16299400 -3.02536400  0.04939500
H     0.43882400 -3.73912400  0.05657100

Pt_irc0072.wfn

