%chk=Pt_irc0052.chk
%nprocshared=24
%mem=10gb
#p pbe1pbe/def2tzvp em=gd3bj scrf=(smd,solvent=benzene) out=wfn

irc

0 1
Pt    0.00006700 -0.32095200  0.00655200
P     2.16127100  0.27806000 -0.01084700
P    -2.16137000  0.27723300 -0.00034600
C     2.68346800  1.26153500  1.43291000
H     2.55269600  0.66943500  2.34085300
H     3.73013900  1.56988000  1.35134200
H     2.04853800  2.14554900  1.51277200
C     3.48981500 -0.97637300 -0.08283700
H     3.36533200 -1.57845900 -0.98581900
H     4.48689400 -0.52565600 -0.08770800
H     3.40201400 -1.64131800  0.77948200
C     2.63053400  1.36507800 -1.39758900
H     1.99528400  2.25238200 -1.38751400
H     3.68056000  1.66640100 -1.33443500
H     2.46284100  0.84117600 -2.34071000
C    -2.63176700  1.41818600  1.34195400
H    -1.99689600  2.30467700  1.29693200
H    -3.68190200  1.71628100  1.26649300
H    -2.46421500  0.93219300  2.30518300
C    -3.48939600 -0.97399400  0.12070000
H    -4.48667600 -0.52389500  0.10730000
H    -3.40092500 -1.67253000 -0.71457100
H    -3.36505500 -1.53979400  1.04686700
C    -2.68338400  1.20242200 -1.48220800
H    -2.55180200  0.57492900 -2.36593700
H    -3.73028700  1.51308000 -1.41339300
H    -2.04897700  2.08299700 -1.59670400
H    -0.38519100 -2.50942200  0.05247800
H     0.38638600 -2.51037600  0.04224400

Pt_irc0052.wfn

