%chk=Pt_irc0100.chk
%nprocshared=24
%mem=10gb
#p pbe1pbe/def2tzvp em=gd3bj scrf=(smd,solvent=benzene) out=wfn

irc

0 1
Pt   -0.00384200 -0.18922900  0.00415500
P     2.21424600  0.15427400 -0.00718300
P    -2.22008900  0.15936500  0.00165100
C     2.81180300  1.09388500  1.43581000
H     2.63538800  0.51364700  2.34359500
H     3.87856300  1.32223400  1.35409300
H     2.24703000  2.02451000  1.51540400
C     3.40338500 -1.22561300 -0.07686000
H     3.22025500 -1.81588200 -0.97708700
H     4.43638000 -0.86620800 -0.08540600
H     3.25602100 -1.87518200  0.78838500
C     2.76606200  1.19703900 -1.39661500
H     2.19987000  2.13015000 -1.39040800
H     3.83516500  1.42014000 -1.33289700
H     2.55989400  0.68370100 -2.33780700
C    -2.75967000  1.26496700  1.34689400
H    -2.18259300  2.19032700  1.30234100
H    -3.82616500  1.49753100  1.27310300
H    -2.55983200  0.78877700  2.30875300
C    -3.42957200 -1.19928600  0.12648900
H    -4.45741400 -0.82543600  0.11376300
H    -3.28690100 -1.88892100 -0.70808100
H    -3.25863000 -1.75137000  1.05301400
C    -2.80606300  1.04792000 -1.47819200
H    -2.63777300  0.42968100 -2.36213400
H    -3.86980800  1.29294200 -1.40539600
H    -2.22936300  1.96724200 -1.59486300
H     0.47157900 -2.74001400  0.00580000
H     0.65851500 -3.47440600  0.00772400

Pt_irc0100.wfn

