%chk=Pt_irc0019.chk
%nprocshared=24
%mem=10gb
#p pbe1pbe/def2tzvp em=gd3bj scrf=(smd,solvent=benzene) out=wfn

irc

0 1
Pt    0.00001800 -0.45001400  0.00974000
P     2.09543900  0.42703800 -0.01698200
P    -2.09550200  0.42733600 -0.00262600
C     2.59963600  1.40817700  1.43466400
H     2.47363500  0.80584400  2.33672400
H     3.64285100  1.72960800  1.36091600
H     1.95422700  2.28430000  1.52155900
C     3.46238800 -0.78633200 -0.09737800
H     3.34667400 -1.39220300 -0.99875900
H     4.44681200 -0.30817700 -0.10803500
H     3.39457300 -1.45379000  0.76444900
C     2.54398400  1.52776500 -1.39981400
H     1.89691400  2.40693200 -1.38654600
H     3.59006700  1.84334500 -1.34272300
H     2.37966000  1.00295600 -2.34331200
C    -2.54367900  1.57996400  1.33731600
H    -1.89694800  2.45820900  1.29042000
H    -3.58986800  1.89277200  1.26831800
H    -2.37917200  1.09144900  2.30005900
C    -3.46252600 -0.78199300  0.12426200
H    -4.44702600 -0.30397800  0.11438500
H    -3.39344900 -1.48344300 -0.71002300
H    -3.34790000 -1.35118400  1.04938100
C    -2.59977400  1.35198800 -1.49077100
H    -2.47626100  0.71434400 -2.36860000
H    -3.64220800  1.67829500 -1.42842000
H    -1.95248800  2.22249400 -1.61288400
H    -0.47001900 -2.11768000  0.05612700
H     0.46801600 -2.11640800  0.04742000

Pt_irc0019.wfn

