%chk=Pt_irc0079.chk
%nprocshared=24
%mem=10gb
#p pbe1pbe/def2tzvp em=gd3bj scrf=(smd,solvent=benzene) out=wfn

irc

0 1
Pt   -0.00399600 -0.26091000  0.00529400
P     2.18712300  0.20403200 -0.00860200
P    -2.19329400  0.20966600  0.00060400
C     2.69999600  1.19325100  1.43455800
H     2.58073200  0.59926700  2.34274700
H     3.74100400  1.51890400  1.34979200
H     2.05202500  2.06771000  1.51613500
C     3.50043700 -1.05893600 -0.08263000
H     3.37539100 -1.65731400 -0.98758800
H     4.49661700 -0.60712300 -0.08436200
H     3.40940500 -1.72615600  0.77714500
C     2.64199200  1.29725300 -1.39543800
H     1.99493400  2.17608400 -1.38389500
H     3.68712000  1.61451300 -1.33188500
H     2.48106400  0.77227000 -2.33900700
C    -2.63790700  1.36077800  1.34329400
H    -1.98075700  2.23103200  1.29966700
H    -3.67926000  1.68703500  1.26468300
H    -2.48535500  0.87063600  2.30678900
C    -3.52454000 -1.03145600  0.12295400
H    -4.51368500 -0.56470900  0.10728300
H    -3.44457500 -1.73237900 -0.71065500
H    -3.40835200 -1.59608900  1.05046400
C    -2.69541000  1.14714900 -1.48052000
H    -2.58275200  0.51680600 -2.36474500
H    -3.73291900  1.48682200 -1.40871300
H    -2.03817300  2.01075100 -1.59609200
H     0.49106800 -2.90486300  0.05044600
H     0.70285500 -3.62973300  0.05147800

Pt_irc0079.wfn

