%chk=Pt_irc0086.chk
%nprocshared=24
%mem=10gb
#p pbe1pbe/def2tzvp em=gd3bj scrf=(smd,solvent=benzene) out=wfn

irc

0 1
Pt   -0.00451800 -0.23811500  0.00494200
P     2.19622300  0.18718400 -0.00789100
P    -2.20378100  0.19275200  0.00072700
C     2.73816700  1.15940700  1.43577600
H     2.59862200  0.56889000  2.34334800
H     3.78906400  1.45205800  1.35280800
H     2.11800200  2.05391500  1.51694500
C     3.46897900 -1.11636000 -0.08161900
H     3.32142800 -1.71524300 -0.98279100
H     4.47818600 -0.69463200 -0.09061600
H     3.36282100 -1.77565900  0.78241300
C     2.68285900  1.26479400 -1.39571600
H     2.06188700  2.16233400 -1.38550000
H     3.73691200  1.55116500 -1.33296100
H     2.50608400  0.74313200 -2.33830900
C    -2.67599300  1.33146400  1.34431600
H    -2.04114100  2.21816700  1.30043000
H    -3.72544200  1.63118900  1.26751500
H    -2.50945800  0.84461600  2.30718000
C    -3.50063400 -1.08382200  0.12452400
H    -4.50171300 -0.64320200  0.10999100
H    -3.40298200 -1.78219500 -0.70931300
H    -3.36839600 -1.64517500  1.05184500
C    -2.73113000  1.11589600 -1.48038700
H    -2.60199700  0.48808100 -2.36416500
H    -3.77722800  1.42813900 -1.40850600
H    -2.09686700  1.99646800 -1.59678800
H     0.57692600 -2.78868000  0.03183500
H     0.79296400 -3.51421700  0.04099800

Pt_irc0086.wfn

