%chk=Pt_irc0011.chk
%nprocshared=24
%mem=10gb
#p pbe1pbe/def2tzvp em=gd3bj scrf=(smd,solvent=benzene) out=wfn

irc

0 1
Pt    0.00003500 -0.48193300  0.01100200
P     2.07499200  0.45954400 -0.01852700
P    -2.07506600  0.45990600 -0.00415000
C     2.56087100  1.44569800  1.43561200
H     2.44682300  0.83822000  2.33579700
H     3.59711400  1.78884700  1.36316700
H     1.89801900  2.30856600  1.52559100
C     3.46119100 -0.73002700 -0.10230600
H     3.35461900 -1.33647400 -1.00420900
H     4.43572400 -0.23216800 -0.11408900
H     3.40643900 -1.39900100  0.75897600
C     2.50193100  1.57024400 -1.39982000
H     1.83871200  2.43744300 -1.38437400
H     3.54170900  1.90594600 -1.34455600
H     2.34539300  1.04410500 -2.34390300
C    -2.50238300  1.62146800  1.33448300
H    -1.83961300  2.48781500  1.28687600
H    -3.54229500  1.95429500  1.26605400
H    -2.34620200  1.13100400  2.29761800
C    -3.46095000 -0.72605600  0.12419700
H    -4.43575400 -0.22870500  0.11310300
H    -3.40366800 -1.42953100 -0.70898100
H    -3.35629800 -1.29515200  1.05033500
C    -2.56085100  1.39028400 -1.49449100
H    -2.44838000  0.74832900 -2.37065700
H    -3.59650700  1.73759500 -1.43470600
H    -1.89653100  2.24784200 -1.61817100
H    -0.51091900 -2.08685300  0.06093300
H     0.50945000 -2.08281500  0.05225200

Pt_irc0011.wfn

