%chk=Pt_irc0063.chk
%nprocshared=24
%mem=10gb
#p pbe1pbe/def2tzvp em=gd3bj scrf=(smd,solvent=benzene) out=wfn

irc

0 1
Pt   -0.00125100 -0.29493800  0.00587400
P     2.17342400  0.24392200 -0.00967300
P    -2.17087900  0.24221800  0.00043600
C     2.67904700  1.24108300  1.43144400
H     2.56241100  0.65001800  2.34185800
H     3.71891000  1.57025100  1.34516700
H     2.02784400  2.11343700  1.50993300
C     3.50980100 -0.99686900 -0.08305700
H     3.39049600 -1.59889900 -0.98656000
H     4.50132700 -0.53454800 -0.08739500
H     3.42822100 -1.66356500  0.77828000
C     2.62208500  1.34338600 -1.39450400
H     1.97112700  2.21932800 -1.38228900
H     3.66577600  1.66489900 -1.32760000
H     2.46596500  0.82000300 -2.33976400
C    -2.62094900  1.39553600  1.34044600
H    -1.96952600  2.27000100  1.29512000
H    -3.66438700  1.71433300  1.25834000
H    -2.46752800  0.90959600  2.30592200
C    -3.50983700 -0.99276600  0.12181300
H    -4.50061300 -0.52893500  0.10727400
H    -3.42973400 -1.69318300 -0.71249400
H    -3.39286200 -1.55890600  1.04854200
C    -2.67616700  1.18211600 -1.47896600
H    -2.56072900  0.55551100 -2.36546400
H    -3.71581600  1.51483700 -1.40472100
H    -2.02459700  2.05033700 -1.59211800
H    -0.27803500 -2.89069800  0.05405400
H     0.38819100 -3.24277000  0.04950100

Pt_irc0063.wfn

