%chk=Pt_irc0095.chk
%nprocshared=24
%mem=10gb
#p pbe1pbe/def2tzvp em=gd3bj scrf=(smd,solvent=benzene) out=wfn

irc

0 1
Pt   -0.00420700 -0.20672300  0.00446800
P     2.20821700  0.16596700 -0.00741700
P    -2.21479700  0.17122700  0.00124900
C     2.78673900  1.11701200  1.43592800
H     2.62291700  0.53286300  2.34356500
H     3.84847400  1.36761700  1.35382800
H     2.20262700  2.03556500  1.51614300
C     3.42740300 -1.18755700 -0.07914400
H     3.25618500 -1.78133400 -0.97943300
H     4.45239300 -0.80591800 -0.08875500
H     3.29534300 -1.84065700  0.78594100
C     2.73703100  1.22175500 -1.39616200
H     2.15156600  2.14287600 -1.38805100
H     3.80137400  1.46682600 -1.33310800
H     2.54062400  0.70559600 -2.33790100
C    -2.73004500  1.28954200  1.34578400
H    -2.13186600  2.20138800  1.30112500
H    -3.79092900  1.54635700  1.27111000
H    -2.54185900  0.80945100  2.30805700
C    -3.45639200 -1.15844400  0.12611700
H    -4.47509100 -0.76031500  0.11258100
H    -3.32988800 -1.85182700 -0.70797400
H    -3.29940300 -1.71391100  1.05310100
C    -2.78016000  1.07242100 -1.47910800
H    -2.62589700  0.45038300 -2.36294600
H    -3.83807600  1.34162500 -1.40652500
H    -2.18257800  1.97828500 -1.59584200
H     0.52138700 -2.75201100  0.01555400
H     0.72243500 -3.48242000  0.01944600

Pt_irc0095.wfn

