%chk=Pt_irc0066.chk
%nprocshared=24
%mem=10gb
#p pbe1pbe/def2tzvp em=gd3bj scrf=(smd,solvent=benzene) out=wfn

irc

0 1
Pt   -0.00194400 -0.28923900  0.00576100
P     2.17695300  0.23703200 -0.00949200
P    -2.17399600  0.23531300  0.00048500
C     2.67919800  1.23599400  1.43152200
H     2.56578800  0.64429300  2.34193000
H     3.71746800  1.56985400  1.34459000
H     2.02419800  2.10544700  1.51045900
C     3.51377600 -1.00216500 -0.08310200
H     3.39550300 -1.60416600 -0.98670400
H     4.50423800 -0.53770100 -0.08713700
H     3.43309500 -1.66937200  0.77786700
C     2.62155800  1.33821400 -1.39424800
H     1.96692700  2.21140700 -1.38220000
H     3.66376900  1.66425200 -1.32683400
H     2.46808700  0.81417800 -2.33957200
C    -2.61925600  1.39056000  1.34040100
H    -1.96363900  2.26190400  1.29545300
H    -3.66101300  1.71446500  1.25746500
H    -2.46890200  0.90387700  2.30596900
C    -3.51510800 -0.99636100  0.12197500
H    -4.50417100 -0.52907100  0.10750500
H    -3.43704000 -1.69712200 -0.71218200
H    -3.39958400 -1.56290600  1.04859600
C    -2.67527900  1.17755800 -1.47872600
H    -2.56333100  0.55051400 -2.36534800
H    -3.71318600  1.51543400 -1.40392300
H    -2.01953100  2.04261000 -1.59198400
H    -0.16282900 -2.92269600  0.05365800
H     0.38104700 -3.47104600  0.05510800

Pt_irc0066.wfn

