%chk=Pt_irc0089.chk
%nprocshared=24
%mem=10gb
#p pbe1pbe/def2tzvp em=gd3bj scrf=(smd,solvent=benzene) out=wfn

irc

0 1
Pt   -0.00449500 -0.22770200  0.00479900
P     2.20036600  0.18007000 -0.00769100
P    -2.20770900  0.18554000  0.00084000
C     2.75497300  1.14510600  1.43589800
H     2.60690300  0.55670000  2.34348900
H     3.80982400  1.42320700  1.35329300
H     2.14720700  2.04812700  1.51667900
C     3.45521200 -1.14061900 -0.08098300
H     3.29911800 -1.73830200 -0.98147700
H     4.46989300 -0.73230400 -0.09105900
H     3.34094800 -1.79752800  0.78380300
C     2.70123200  1.25058600 -1.39579500
H     2.09218600  2.15627200 -1.38616500
H     3.75896400  1.52298300 -1.33303000
H     2.51766600  0.73076000 -2.33810600
C    -2.69400800  1.31784800  1.34470800
H    -2.07097800  2.21290000  1.30049800
H    -3.74738400  1.60364200  1.26864800
H    -2.52032800  0.83313300  2.30738900
C    -3.48666000 -1.10870200  0.12516200
H    -4.49371600 -0.68192800  0.11091600
H    -3.37954700 -1.80567800 -0.70867400
H    -3.34628200 -1.66813200  1.05244100
C    -2.74774500  1.10154800 -1.48004700
H    -2.61033900  0.47548700 -2.36382400
H    -3.79793500  1.39964900 -1.40788300
H    -2.12544600  1.99061200 -1.59662500
H     0.56648400 -2.77028000  0.02664000
H     0.78031500 -3.49672400  0.03324400

Pt_irc0089.wfn

