%chk=Pt_irc0031.chk
%nprocshared=24
%mem=10gb
#p pbe1pbe/def2tzvp em=gd3bj scrf=(smd,solvent=benzene) out=wfn

irc

0 1
Pt    0.00004300 -0.40282600  0.00828400
P     2.12550900  0.38254300 -0.01507900
P    -2.12565700  0.38245800 -0.00126000
C     2.65938300  1.35091000  1.43425900
H     2.51363900  0.75552100  2.33795100
H     3.71234100  1.63890700  1.36012700
H     2.04143700  2.24678500  1.51760400
C     3.45329100 -0.87503300 -0.08996800
H     3.32087500 -1.47884000 -0.99057900
H     4.45277100 -0.42919000 -0.09959700
H     3.36347100 -1.53815400  0.77337100
C     2.61047100  1.46360800 -1.40078900
H     1.99113600  2.36239000 -1.39068000
H     3.66604200  1.74584700 -1.34263800
H     2.43085100  0.94141900 -2.34292700
C    -2.61015800  1.51602600  1.34199700
H    -1.99053200  2.41357900  1.29771200
H    -3.66561200  1.79619300  1.27284800
H    -2.43101100  1.03007300  2.30341100
C    -3.45354500 -0.87109800  0.12214400
H    -4.45299200 -0.42516500  0.11360300
H    -3.36324900 -1.56764300 -0.71440800
H    -3.32169500 -1.43901300  1.04589300
C    -2.65967400  1.29411100 -1.48681200
H    -2.51557400  0.66344400 -2.36653500
H    -3.71217400  1.58624400 -1.42311700
H    -2.04052500  2.18508000 -1.60585600
H    -0.44245900 -2.12801500  0.05063800
H     0.44214300 -2.12432500  0.04545700

Pt_irc0031.wfn

