%chk=Pt_irc0099.chk
%nprocshared=24
%mem=10gb
#p pbe1pbe/def2tzvp em=gd3bj scrf=(smd,solvent=benzene) out=wfn

irc

0 1
Pt   -0.00392100 -0.19272700  0.00421900
P     2.21308100  0.15661400 -0.00723700
P    -2.21907300  0.16172900  0.00157300
C     2.80687600  1.09849700  1.43584400
H     2.63295400  0.51744000  2.34358600
H     3.87267600  1.33127200  1.35405400
H     2.23824500  2.02675800  1.51558100
C     3.40827700 -1.21804900 -0.07737300
H     3.22751600 -1.80902000 -0.97762200
H     4.43970500 -0.85417300 -0.08614300
H     3.26399500 -1.86837400  0.78782800
C     2.76030600  1.20204500 -1.39651800
H     2.19029100  2.13281900 -1.38987400
H     3.82850900  1.42948000 -1.33297300
H     2.55601600  0.68816800 -2.33782600
C    -2.75378900  1.26994500  1.34666100
H    -2.17251100  2.19266600  1.30202600
H    -3.81922200  1.50731000  1.27273300
H    -2.55620400  0.79299600  2.30861000
C    -3.43504100 -1.19117500  0.12645300
H    -4.46109900 -0.81245000  0.11356800
H    -3.29560900 -1.88160500 -0.70801200
H    -3.26687900 -1.74395200  1.05307600
C    -2.80096500  1.05282600 -1.47838000
H    -2.63545700  0.43380000 -2.36229700
H    -3.86359400  1.30266700 -1.40562700
H    -2.22008500  1.96950700 -1.59507000
H     0.48207300 -2.74250200  0.00789300
H     0.67202800 -3.47606800  0.01015700

Pt_irc0099.wfn

