%chk=Pt_irc0023.chk
%nprocshared=24
%mem=10gb
#p pbe1pbe/def2tzvp em=gd3bj scrf=(smd,solvent=benzene) out=wfn

irc

0 1
Pt    0.00001000 -0.43438700  0.00921600
P     2.10556300  0.41213700 -0.01639000
P    -2.10564500  0.41239300 -0.00207500
C     2.61980200  1.38945000  1.43434300
H     2.48661200  0.78985500  2.33718400
H     3.66662600  1.69897500  1.36052400
H     1.98414300  2.27278900  1.51954500
C     3.45995100 -0.81577000 -0.09485800
H     3.33857600 -1.42110300 -0.99591200
H     4.44957800 -0.34846400 -0.10521200
H     3.38468800 -1.48181600  0.76751400
C     2.56654300  1.50667600 -1.40008200
H     1.92898400  2.39273100 -1.38772400
H     3.61601400  1.81079100 -1.34246500
H     2.39706100  0.98297000 -2.34326800
C    -2.56593000  1.55908100  1.33888500
H    -1.92841200  2.44403100  1.29256600
H    -3.61541200  1.86075800  1.26989200
H    -2.39634300  1.07165000  2.30128800
C    -3.46020100 -0.81139600  0.12378500
H    -4.44979700 -0.34400500  0.11458600
H    -3.38420800 -1.51123700 -0.71132300
H    -3.33968300 -1.38033800  1.04836300
C    -2.62014800  1.33303800 -1.48921800
H    -2.48944600  0.69799200 -2.36788000
H    -3.66623700  1.64740100 -1.42629200
H    -1.98269000  2.21088500 -1.61005700
H    -0.45812300 -2.12389300  0.05354900
H     0.45839600 -2.12303100  0.04728400

Pt_irc0023.wfn

