%chk=Pt_irc0059.chk
%nprocshared=24
%mem=10gb
#p pbe1pbe/def2tzvp em=gd3bj scrf=(smd,solvent=benzene) out=wfn

irc

0 1
Pt   -0.00049600 -0.30149200  0.00601600
P     2.16952500  0.25150500 -0.00988500
P    -2.16808500  0.25000200  0.00037700
C     2.67921100  1.24625200  1.43139500
H     2.55838900  0.65615100  2.34189300
H     3.72100600  1.56962100  1.34626500
H     2.03248700  2.12199000  1.50886700
C     3.50489900 -0.99184100 -0.08299600
H     3.38520500 -1.59356800 -0.98671500
H     4.49768200 -0.53201700 -0.08714300
H     3.42240800 -1.65830500  0.77851200
C     2.62303500  1.34871400 -1.39480300
H     1.97643000  2.22783200 -1.38180400
H     3.66853100  1.66463700 -1.32901300
H     2.46328400  0.82634500 -2.34003000
C    -2.62318800  1.40093700  1.34055200
H    -1.97634000  2.27872300  1.29422800
H    -3.66852100  1.71402900  1.26026700
H    -2.46558200  0.91595300  2.30584000
C    -3.50476400 -0.98868200  0.12168300
H    -4.49727100 -0.52846600  0.10670100
H    -3.42217700 -1.68901100 -0.71253500
H    -3.38651700 -1.55414100  1.04873100
C    -2.67750800  1.18698300 -1.47934800
H    -2.55737900  0.56100600 -2.36566500
H    -3.71917700  1.51372300 -1.40658800
H    -2.03055400  2.05872400 -1.59180900
H    -0.35516200 -2.80560300  0.05178000
H     0.38493800 -2.96673000  0.04289800

Pt_irc0059.wfn

