%chk=Pt_irc0006.chk
%nprocshared=24
%mem=10gb
#p pbe1pbe/def2tzvp em=gd3bj scrf=(smd,solvent=benzene) out=wfn

irc

0 1
Pt    0.00001000 -0.49999400  0.01178800
P     2.06598300  0.47774500 -0.01971600
P    -2.06595500  0.47806900 -0.00530600
C     2.53945900  1.46526400  1.43678300
H     2.42919600  0.85826800  2.33728600
H     3.56724600  1.83261400  1.36910100
H     1.85934100  2.31663800  1.52550000
C     3.45525000 -0.70337700 -0.10560600
H     3.35334000 -1.30536000 -1.00992100
H     4.41752700 -0.18193400 -0.12078000
H     3.41144400 -1.36789900  0.75813800
C     2.48010700  1.59404900 -1.39981500
H     1.80147300  2.45122900 -1.37773800
H     3.51191900  1.95312000 -1.34957300
H     2.32278600  1.07386600 -2.34667000
C    -2.48020800  1.64413400  1.33295100
H    -1.80178400  2.50010000  1.28033900
H    -3.51207900  2.00054800  1.26795300
H    -2.32420800  1.15850400  2.29815000
C    -3.45486600 -0.69957000  0.12426900
H    -4.41767100 -0.17900700  0.11299900
H    -3.40673100 -1.39950800 -0.71088600
H    -3.35614400 -1.26322700  1.05322100
C    -2.53999800  1.41098400 -1.49713800
H    -2.43015100  0.77097200 -2.37457600
H    -3.56752900  1.78147600 -1.44351500
H    -1.85923100  2.25796100 -1.61774600
H    -0.61405300 -2.00473600  0.06900400
H     0.61556500 -2.00343300  0.06089300

Pt_irc0006.wfn

