%chk=Pt_irc0025.chk
%nprocshared=24
%mem=10gb
#p pbe1pbe/def2tzvp em=gd3bj scrf=(smd,solvent=benzene) out=wfn

irc

0 1
Pt    0.00000900 -0.42654900  0.00897200
P     2.11062300  0.40482600 -0.01609200
P    -2.11069800  0.40500100 -0.00183800
C     2.62993700  1.37990400  1.43428000
H     2.49329400  0.78145300  2.33736700
H     3.67850700  1.68348700  1.36043600
H     1.99913800  2.26672900  1.51888800
C     3.45840400 -0.83061200 -0.09359900
H     3.33415200 -1.43565700 -0.99448800
H     4.45064400 -0.36890200 -0.10376400
H     3.37933000 -1.49595800  0.76901400
C     2.57789300  1.49598300 -1.40026900
H     1.94524500  2.38550700 -1.38848000
H     3.62906800  1.79416400 -1.34249200
H     2.40575100  0.97267900 -2.34319600
C    -2.57721000  1.54841500  1.33970300
H    -1.94446600  2.43676400  1.29386300
H    -3.62834800  1.84431600  1.27073400
H    -2.40508600  1.06135800  2.30184800
C    -3.45870200 -0.82628900  0.12342700
H    -4.45089000 -0.36444500  0.11446800
H    -3.37906000 -1.52533500 -0.71205200
H    -3.33520700 -1.39509000  1.04773200
C    -2.63032700  1.32339800 -1.48854800
H    -2.49604600  0.68952200 -2.36751600
H    -3.67821900  1.63168000 -1.42539000
H    -1.99785900  2.20486200 -1.60887500
H    -0.45340300 -2.12400700  0.05226800
H     0.45417700 -2.12387400  0.04726600

Pt_irc0025.wfn

