#p b3lyp/6-31g(d,p)

b3lyp/6-31g(d,p) opted TS

0 1
 C                  0.61477600    1.69893500    0.00000000
 C                  1.77870900   -0.31705600    0.00000000
 C                  1.16393300   -1.38187900    0.00000000
 C                 -1.16393300   -1.38187900    0.00000000
 C                 -1.77870900   -0.31705600    0.00000000
 C                 -0.61477600    1.69893500    0.00000000
 H                  1.57507900    2.16119900    0.00000000
 H                  2.65919200    0.28345900    0.00000000
 H                  1.08411300   -2.44465800    0.00000000
 H                 -1.08411300   -2.44465800    0.00000000
 H                 -2.65919200    0.28345900    0.00000000
 H                 -1.57507900    2.16119900    0.00000000

