%chk=E:\TCCNotes\ICC\1030\Pt.chk
# hf/3-21g geom=connectivity

Title Card Required

0 1
 Pt                -0.39915966    0.52521008    0.00000000
 P                  1.94084034    0.52521008    0.00000000
 P                 -2.73915966    0.52521008    0.00000000
 C                  2.54750733    2.24007713   -0.05988448
 H                  2.19084068    2.77466245    0.79563141
 H                  3.61750733    2.24007658   -0.05988482
 H                  2.19084067    2.71368301   -0.95060686
 C                  2.54750647   -0.28036192    1.51506105
 H                  2.18922593   -1.28794636    1.55123623
 H                  3.61750464   -0.28210786    1.51413345
 H                  2.19245501    0.25536318    2.37053582
 C                  2.54750647   -0.38408490   -1.45517657
 H                  2.18926170    0.08840428   -2.34585870
 H                  3.61750472   -0.38244579   -1.45620153
 H                  2.19241916   -1.39279853   -1.41898501
 C                 -3.34582578   -1.18966886    0.05955204
 H                 -2.98916017   -1.66344619    0.95018366
 H                 -4.41582578   -1.18966893    0.05955009
 H                 -2.98915756   -1.72408911   -0.79606632
 C                 -3.34582664    1.33107563   -1.51490458
 H                 -4.41582664    1.33107436   -1.51490464
 H                 -2.98916064    2.33927382   -1.54991540
 H                 -2.98915933    0.79665656   -2.37052406
 C                 -3.34582578    1.43422350    1.45535247
 H                 -2.98915912    2.44242142    1.42034026
 H                 -4.41582578    1.43422294    1.45535282
 H                 -2.98915862    0.96044587    2.34598331

 1 2 1.0 3 1.0
 2 4 1.0 8 1.0 12 1.0
 3 16 1.0 20 1.0 24 1.0
 4 5 1.0 6 1.0 7 1.0
 5
 6
 7
 8 9 1.0 10 1.0 11 1.0
 9
 10
 11
 12 13 1.0 14 1.0 15 1.0
 13
 14
 15
 16 17 1.0 18 1.0 19 1.0
 17
 18
 19
 20 21 1.0 22 1.0 23 1.0
 21
 22
 23
 24 25 1.0 26 1.0 27 1.0
 25
 26
 27

