%chk=Pt_tsb.chk
%nprocshared=24
#p opt=(calcfc,ts,noeigen) M062X/genecp scrf=(smd,solvent=benzene) 

Title Card Required

0 1
 Pt                -0.11663878    0.74248400    0.01095001
 P                  2.10930609   -0.02442287    0.00716096
 P                 -2.12237097   -0.07414301    0.00878411
 C                  3.14812050    0.54334322    1.41696394
 H                  2.69645066    0.21269289    2.35799014
 H                  4.16994774    0.15187063    1.35033212
 H                  3.17564606    1.63690212    1.42111206
 C                  2.40718450   -1.84553987    0.03481052
 H                  1.90599830   -2.31445967   -0.81820864
 H                  3.47839437   -2.07240298   -0.01840791
 H                  2.00252449   -2.27285153    0.95692393
 C                  3.09781179    0.48919740   -1.45882663
 H                  3.11593655    1.58161573   -1.51192340
 H                  4.12445183    0.10807098   -1.40814465
 H                  2.61939552    0.11430213   -2.36961473
 C                 -3.39540340    1.02241635    0.75945632
 H                 -3.40434897    1.97681345    0.22516534
 H                 -4.39392998    0.57138266    0.72256578
 H                 -3.12732863    1.22281016    1.80187427
 C                 -2.47359713   -1.67322543    0.86100956
 H                 -3.54875794   -1.88677150    0.86951600
 H                 -1.95770164   -2.49254719    0.35408156
 H                 -2.11395520   -1.62282779    1.89398445
 C                 -2.80121431   -0.37757680   -1.67690394
 H                 -2.18214828   -1.11842941   -2.19347234
 H                 -3.83614508   -0.73712322   -1.63832908
 H                 -2.76334391    0.55412897   -2.24982035
 H                 -0.46347628    2.67136767   -0.02227010
 H                  0.38359162    2.57712317   -0.02530976

Pt 0
SDD
****
P C H 0
6-31g*
****

Pt
SDD




