%chk=Pt_tsscan.chk
%nprocshared=24
#p scan b3lyp/genecp scrf=(smd,solvent=benzene) em=gd3bj

Title Card Required

0 1
 Pt             
 P                  1            B1
 P                  1            B2    2            A1
 C                  2            B3    1            A2    3            D1    0
 H                  4            B4    2            A3    1            D2    0
 H                  4            B5    2            A4    1            D3    0
 H                  4            B6    2            A5    1            D4    0
 C                  2            B7    1            A6    3            D5    0
 H                  8            B8    2            A7    1            D6    0
 H                  8            B9    2            A8    1            D7    0
 H                  8           B10    2            A9    1            D8    0
 C                  2           B11    1           A10    3            D9    0
 H                 12           B12    2           A11    1           D10    0
 H                 12           B13    2           A12    1           D11    0
 H                 12           B14    2           A13    1           D12    0
 C                  3           B15    1           A14    2           D13    0
 H                 16           B16    3           A15    1           D14    0
 H                 16           B17    3           A16    1           D15    0
 H                 16           B18    3           A17    1           D16    0
 C                  3           B19    1           A18    2           D17    0
 H                 20           B20    3           A19    1           D18    0
 H                 20           B21    3           A20    1           D19    0
 H                 20           B22    3           A21    1           D20    0
 C                  3           B23    1           A22    2           D21    0
 H                 24           B24    3           A23    1           D22    0
 H                 24           B25    3           A24    1           D23    0
 H                 24           B26    3           A25    1           D24    0
 H                  1           B27    2           A26    3           D25    0
 H                  1           B28    2           A27    3           D26    0

   B1             2.27880804
   B2             2.27881704
   B3             1.84535765
   B4             1.09510541
   B5             1.09735189
   B6             1.09510849
   B7             1.84542089
   B8             1.09511212
   B9             1.09733132
   B10            1.09511772
   B11            1.84539561
   B12            1.09512668
   B13            1.09735249
   B14            1.09511567
   B15            1.84535226
   B16            1.09510932
   B17            1.09734899
   B18            1.09510609
   B19            1.84540583
   B20            1.09733329
   B21            1.09511205
   B22            1.09511602
   B23            1.84540116
   B24            1.09511329
   B25            1.09735268
   B26            1.09512629
   B27            1.85000000
   B28            1.85000000
   A1           179.97883582
   A2           116.24476714
   A3           109.38805431
   A4           111.54723430
   A5           109.40538367
   A6           116.26334347
   A7           109.40810297
   A8           111.54498883
   A9           109.40341050
   A10          116.25836516
   A11          109.40349493
   A12          111.55033019
   A13          109.39867310
   A14          116.26603988
   A15          109.40191740
   A16          111.54882578
   A17          109.38971995
   A18          116.24587291
   A19          111.54764710
   A20          109.40382368
   A21          109.40458126
   A22          116.25022270
   A23          109.39939110
   A24          111.54868544
   A25          109.40353729
   A26           90.01058209
   A27           89.99963919
   D1             3.80397869
   D2            59.06015257
   D3           179.98562288
   D4           -59.07723327
   D5           123.78738646
   D6            59.04691560
   D7           179.98211041
   D8           -59.09468801
   D9          -116.20222069
   D10           59.05109121
   D11          179.98284679
   D12          -59.08519553
   D13          176.26369002
   D14           59.07517022
   D15         -179.98831330
   D16          -59.06112888
   D17           56.26997285
   D18         -179.98034568
   D19          -59.04554677
   D20           59.09373744
   D21          -63.71897839
   D22           59.03856913
   D23          179.97106344
   D24          -59.09840705
   D25          180.00000000

D26           22.14769869 14 10.0

Pt 0
SDD
****
P C H 0
6-31g*
****

Pt
SDD


