%chk=Pt_ts3.chk
%nprocshared=24
#p opt=(ts,calcfc,noeigen,restart) freq b3lyp/gen em=gd3bj scrf=(smd,solvent=benzene) 

Title Card Required

0 1
 Pt             
 P                  1            B1
 P                  1            B2    2            A1
 C                  2            B3    1            A2    3            D1    0
 H                  4            B4    2            A3    1            D2    0
 H                  4            B5    2            A4    1            D3    0
 H                  4            B6    2            A5    1            D4    0
 C                  2            B7    1            A6    3            D5    0
 H                  8            B8    2            A7    1            D6    0
 H                  8            B9    2            A8    1            D7    0
 H                  8           B10    2            A9    1            D8    0
 C                  2           B11    1           A10    3            D9    0
 H                 12           B12    2           A11    1           D10    0
 H                 12           B13    2           A12    1           D11    0
 H                 12           B14    2           A13    1           D12    0
 C                  3           B15    1           A14    2           D13    0
 H                 16           B16    3           A15    1           D14    0
 H                 16           B17    3           A16    1           D15    0
 H                 16           B18    3           A17    1           D16    0
 C                  3           B19    1           A18    2           D17    0
 H                 20           B20    3           A19    1           D18    0
 H                 20           B21    3           A20    1           D19    0
 H                 20           B22    3           A21    1           D20    0
 C                  3           B23    1           A22    2           D21    0
 H                 24           B24    3           A23    1           D22    0
 H                 24           B25    3           A24    1           D23    0
 H                 24           B26    3           A25    1           D24    0
 H                  1           B27    2           A26    4           D25    0
 H                  1           B27    2           A27    4           D26    0

   B1             2.27880804
   B2             2.27881704
   B3             1.84535758
   B4             1.09510588
   B5             1.09735186
   B6             1.09510784
   B7             1.84542049
   B8             1.09511281
   B9             1.09733127
   B10            1.09511779
   B11            1.84539640
   B12            1.09512607
   B13            1.09735259
   B14            1.09511536
   B15            1.84535224
   B16            1.09510902
   B17            1.09734897
   B18            1.09510548
   B19            1.84540656
   B20            1.09733327
   B21            1.09511244
   B22            1.09511520
   B23            1.84540110
   B24            1.09511268
   B25            1.09735276
   B26            1.09512643
   A1           179.97881975
   A2           116.24479829
   A3           109.38797916
   A4           111.54725198
   A5           109.40538789
   A6           116.26336661
   A7           109.40810739
   A8           111.54502280
   A9           109.40340299
   A10          116.25834062
   A11          109.40344782
   A12          111.55029166
   A13          109.39866263
   A14          116.26601714
   A15          109.40193114
   A16          111.54880715
   A17          109.38974828
   A18          116.24585796
   A19          111.54764423
   A20          109.40378019
   A21          109.40457026
   A22          116.25025034
   A23          109.39937683
   A24          111.54866768
   A25          109.40349665
   A26           90.01059919
   A27           89.99965085
   D1             3.70671510
   D2            59.06018984
   D3           179.98559609
   D4           -59.07717438
   D5           123.69016736
   D6            59.04687255
   D7           179.98207661
   D8           -59.09466847
   D9          -116.29945361
   D10           59.05110795
   D11          179.98283148
   D12          -59.08517314
   D13          176.36088337
   D14           59.07524699
   D15         -179.98832994
   D16          -59.06112076
   D17           56.36722941
   D18         -179.98033431
   D19          -59.04558444
   D20           59.09367735
   D21          -63.62173353
   D22           59.03853264
   D23          179.97107147
   D24          -59.09842685
   D25         -176.19602847
   D26          112.95165407
   B27            1.90

Pt 0
SDD
****
P C H 0
6-31g*
****

Pt 
SDD


