%chk=PMe3_ts3.chk
%nprocshared=24
#p opt=(calcfc,ts,noeigen) freq b3lyp/6-31g(d) scrf=(smd,solvent=benzene)
em=gd3bj

title

0 1
 P                 -0.00772600   -0.21785400    0.45641400
 C                  0.06210900    1.63180700   -0.12343500
 H                 -0.84645000    2.15342600    0.20871700
 H                  0.92179600    2.13752400    0.33749600
 H                  0.13899200    1.74579000   -1.21339400
 C                  1.58532200   -0.64290300   -0.39708100
 H                  1.98529800   -1.59493400   -0.03979000
 H                  1.37448100   -0.72595600   -1.47007500
 H                  2.32199400    0.15424200   -0.26324800
 C                 -1.62428200   -0.54471500   -0.40637600
 H                 -1.57556700   -1.53329100   -0.87403700
 H                 -2.40936100   -0.58009600    0.35845300
 H                 -1.88116800    0.21771400   -1.14695800
 H                 -0.08427023   -1.50663050    1.73912510
 H                  0.01423577   -0.36777594    2.27221473

