%chk=Rb4.chk
%nprocshared=24
#p opt freq b3lyp/6-31+g(d)

Title Card Required

0 1
 C                 -1.99166900    0.55262100   -0.34356100
 H                 -1.73824100    0.84304700   -1.35888400
 H                 -2.81140000    1.06293200    0.15013300
 C                 -1.34457300   -0.43682000    0.28280000
 O                 -0.34552900   -1.17089900   -0.30838800
 C                  0.96925800   -0.87773600    0.22342700
 H                  0.92698200   -0.89580000    1.32139500
 H                  1.60137100   -1.70173300   -0.11871200
 C                  1.44456900    0.45432300   -0.27968000
 H                  1.82563500    0.47779900   -1.29927500
 C                  1.31816700    1.59711900    0.40919300
 H                  0.91516000    1.61294400    1.42228000
 H                  1.62074500    2.55539800   -0.01369300
 H                 -1.56860400   -0.72550600    1.31218800

