%chk=ts3.chk
%nprocshared=24
#p opt=(calcfc,ts,noeigen,recalc=5) freq b3lyp/6-31+g(d)

Title Card Required

0 1
 C                 -1.43283135    0.15712083   -0.35234876
 H                 -2.49818735    0.32203983   -0.16294376
 H                 -1.25194735   -0.01829017   -1.44987576
 C                 -0.64713435    1.32910883    0.02543124
 H                 -1.05071835    2.32757483    0.18960324
 O                  0.63819065    1.28673783    0.10504624
 C                  1.52968135   -0.14505783   -0.04105324
 H                  2.15643835    0.10839417   -0.90497924
 H                  2.18715035   -0.13506483    0.85269176
 C                  0.64368635   -1.35971383   -0.22096024
 H                  1.19132835   -2.25861383    0.08098976
 C                 -0.72013365   -1.22419683    0.39782076
 H                 -1.34224665   -2.09933483    0.18515476
 H                 -0.73694865   -1.08417083    1.51565176

