#p hf/3-21g

112
Coordinates from ORCA-job 3sigma_cut1_tzdz

0 1
  C   7.78652539034643      1.39570656476157     14.98602833676624
  H   8.31386249150211      1.57644697925453     14.04267422468238
  H   6.81614608541781      1.89207523796778     14.92791259639648
  C   8.57647029514353      1.90801922312185     16.13810214750624
  H   7.61072372673323      0.32089164923101     15.06561737734079
  C   9.56726848970786      1.17811227170009     16.87021550779842
  C   8.50503311275844      3.21873704799612     16.66156152993210
  C   10.06706527133772     -0.18535187745995     16.54363515356796
  C   10.09387148268998      2.05241716560763     17.85540537145177
  C   9.42655512060518      3.31094106050305     17.75026744937504
  C   7.70313065179725      4.32929377865807     16.08308791948840
  H   9.29175590311937     -0.79734928062846     16.07897174072535
  H   10.42323179069228     -0.70987105269654     17.43330568655776
  H   10.90391645355216     -0.13179690117936     15.83727991618620
  C   11.21555124723773      1.74688809875465     18.78651347773688
  C   9.79246865254304      4.54558556934674     18.49742790868215
  H   8.16455330434460      4.67484936664607     15.15093630362233
  H   6.68022802013220      4.01682783521850     15.86212836278931
  H   7.64659956260536      5.17537054464070     16.76666193354975
  H   11.12100513080163      2.30068722409559     19.72209402854551
  H   12.17258964574536      2.02824836961259     18.33310366907321
  H   11.26100470819678      0.68272637215018     19.02592881957260
  H   8.95784022411618      5.24351174726271     18.55687909379900
  H   10.62927451459052      5.05748566040171     18.00660644431702
  H   10.09880562420997      4.31913283449297     19.52038089646152
  Fe  8.03726260992385      1.80273168064280     18.19398385264476
  P   6.12641307402324      2.76121795197622     18.79481166253334
  C   8.29256066470955      1.40971145832788     19.85433924437135
  O   5.60691903557046      2.32260300946672     20.15691331078659
  C   5.13906349129625      2.05542956429306     17.48043433185612
  C   5.72182882418617      4.50347253302052     18.60210384972679
  O   8.52473677473959      1.18651501321410     20.96243947081942
  K   4.89957859083336      0.93169719949784     22.10092303316418
  C   4.09131581263305      2.71293689691971     16.86652602841953
  C   5.49920584637031      0.68998132125906     17.28660365081516
  C   4.63202716574628      4.87861419205530     17.86403418371137
  C   6.47080910002289      5.48512311059345     19.38582479901857
  O   5.74502690956118     -1.83676267430465     22.13618425385271
  O   3.55195661369053      3.26868124740553     22.70951756097882
  H   3.48487506413655      2.16389984216031     16.14621594211165
  C   3.79883483159947      4.06509723556629     17.04850464684483
  N   6.73364926474052      0.34408576217915     17.75953723728530
  C   4.67769483631244     -0.29986623318814     16.71670720859095
  H   4.33936759925861      5.92545411001796     17.94127906908448
  C   7.03817160308378      5.13792563061698     20.62202326346096
  C   6.67805396351620      6.79282628177300     18.92405573797312
  C   7.07503347384485     -1.91226167665638     22.58306311622476
  C   5.56199211723073     -2.41737734099925     20.86911846031539
  C   2.33852906512182      3.54314578225042     22.06187857484962
  C   3.75145789996927      3.94231689188975     23.91895066869234
  C   2.64255736530538      4.65934113909973     16.37556449792082
  C   7.10392796852153     -0.93609376881296     17.75125777524724
  H   3.70459120847276     -0.01762495898811     16.33318256118978
  C   5.09281489764702     -1.60787420626678     16.67753903790740
  H   6.87030779645973      4.13500654882227     21.00078570707346
  C   7.77714739399785      6.05345551434218     21.35248726556347
  H   6.28031137106692      7.08165739188617     17.95637200769928
  C   7.41318414322470      7.70906442176971     19.65985995546752
  H   7.74710094199414     -1.38745561335644     21.87725108508140
  H   7.40580364801128     -2.96687913155376     22.64559435213386
  C   7.19228289619833     -1.28889015962310     23.94591764483910
  H   5.81190693079887     -3.49559563471473     20.89516838031638
  H   6.22443620019737     -1.93435532759958     20.12703543347146
  C   4.13306800814529     -2.25556375069252     20.43233403597552
  C   2.36092735983639      2.91136440449569     20.69737485993674
  H   2.20079830241320      4.63520335411627     21.94390675249358
  H   1.48292205116591      3.15796113379093     22.65232785887457
  C   5.20016081058706      3.81539488181576     24.30620494030494
  H   3.10221081509881      3.52858988896290     24.71624984671482
  H   3.51178378188149      5.01796866948578     23.81539411811021
  C   1.49216956371835      3.90264622337811     16.09860979839306
  C   2.62399861664824      6.00469149237508     15.97383201077945
  H   8.07677316481215     -1.14491206788848     18.17908927182618
  C   6.33175033432218     -1.94874769838518     17.22180554220053
  H   4.45413898011557     -2.37031580459736     16.24364551223797
  H   8.20573077347097      5.75642231847152     22.30508712234520
  C   7.97233669592122      7.34560765593876     20.87897017140766
  H   7.56620534230584      8.71081106890727     19.27034331609297
  O   6.89971851166115      0.07992059954315     23.86080302008400
  H   6.50407731013895     -1.79074949511627     24.65394281296136
  H   8.22440810293530     -1.44461627432018     24.31488465432754
  O   3.85100791588900     -0.89274868938026     20.28709659812533
  H   3.99826773792037     -2.78735831685666     19.47090697173066
  H   3.45172708355623     -2.72077720096106     21.17250111166171
  O   2.38365972636587      1.50859321666136     20.82833495855809
  H   1.45899193086999      3.23054802937377     20.13900347575981
  H   3.25812709709713      3.25032713347313     20.14763456530134
  O   5.51827308621488      2.46100209059464     24.50472172205374
  H   5.82978085248869      4.24299104783084     23.50169495619620
  H   5.38411109673403      4.39922756641733     25.22857195657173
  H   1.44805682950683      2.86989663332781     16.42821505731763
  C   0.40030741160152      4.45088837226245     15.44563143937567
  H   3.49778553261073      6.62386949022361     16.14690777492277
  C   1.52751719107023      6.55637911407209     15.33184147090980
  H   6.68825985422008     -2.97060073442258     17.24227901337056
  H   8.55449035185142      8.06024348833779     21.45119083542285
  C   7.10757428243108      0.78115826527652     25.05794169991863
  C   2.57280758584321     -0.62276708368539     19.77472162771595
  C   2.41574759063324      0.85901255731660     19.58054321240626
  C   6.86780348097050      2.24789387787868     24.82824731523047
  H   -0.47187060875610      3.83306054083033     15.25462989123393
  C   0.40468270717534      5.78478039141471     15.05653771205417
  H   1.55597732475721      7.59897629515755     15.03029152890524
  H   8.14685052359704      0.64433576570012     25.41387323887710
  H   6.43010579064244      0.40829667051437     25.85068739091525
  H   1.79186965720401     -1.00674519105940     20.46127334384378
  H   2.43698202461633     -1.12397039449196     18.79743911131161
  H   3.25551133815650      1.24291958906812     18.97567362962294
  H   1.47626149851546      1.04871407949592     19.02422259222032
  H   7.14250645294633      2.80225932995138     25.74634222493902
  H   7.52169006235450      2.60749660936696     24.00970563129232
  H   -0.45262482820701      6.21652736158748     14.55174653919719




