%chk=benzene.chk
%nproc=24
#p b3lyp/6-31+g** opt freq 

Title Card Required

0 1
 C                 -2.99741586   -0.69767441    0.00000000
 C                 -1.60225586   -0.69767441    0.00000000
 C                 -0.90471786    0.51007659    0.00000000
 C                 -1.60237186    1.71858559   -0.00119900
 C                 -2.99719686    1.71850759   -0.00167800
 C                 -3.69479786    0.51030159   -0.00068200
 H                 -3.54717486   -1.64999141    0.00045000
 H                 -1.05274786   -1.65018741    0.00131500
 H                  0.19496214    0.51015659    0.00063400
 H                 -1.05217186    2.67072859   -0.00125800
 H                 -3.54731886    2.67078859   -0.00263100
 H                 -4.79440186    0.51048459   -0.00086200


