%chk=P_6-31+gs.chk
%nproc=24
#p b3lyp/6-31+g* opt=(calcfc,recalc=3) freq

Title Card Required

-1 1
 C                 -1.08527126   -1.08527130    0.00000000
 H                 -0.72861683   -2.09408130    0.00000000
 H                 -0.72859842   -0.58087311    0.87365150
 H                 -0.72859842   -0.58087311   -0.87365150
 Br                -2.99527126   -1.08524777    0.00000000
 Cl                 0.90443466   -1.08529582    0.00000000

 1 2 1.0 3 1.0 4 1.0 5 1.0
 2
 3
 4
 5
 6

