%chk=R_6-31+gs.chk
%nproc=24
#p b3lyp/6-31+g* opt=(calcfc,recalc=3) freq

Title Card Required

-1 1
 C                 -0.98191209   -0.83979327    0.00000000
 H                 -0.62525767   -1.84860327    0.00000000
 H                 -0.62523925   -0.33539508    0.87365150
 H                 -0.62523925   -0.33539508   -0.87365150
 Cl                -2.74191209   -0.83977158    0.00000000
 Br                 0.84093826   -0.83981573    0.00000000

 1 2 1.0 3 1.0 4 1.0 5 1.0
 2
 3
 4
 5
 6

