%chk=w1.chk
%nproc=24
#p b3lyp/6-31+g* opt freq

H2O opt freq

0 1
 O                 -2.63565877    0.12919896    0.00000000
 H                 -1.67565877    0.12919896    0.00000000
 H                 -2.95611336    1.03413480    0.00000000


